c 
p cnf 111 180
-1 19 21 0
-21 -2 -20 0
4 -18 22 0
-22 -11 23 0
-23 19 6 0
-3 17 24 0
-24 -10 -16 0
1 -13 25 0
1 -13 -25 0
4 -2 26 0
4 -2 -26 0
-19 17 16 0
-13 3 27 0
-27 -7 28 0
-28 -19 -2 0
11 13 -16 0
-13 -14 -12 0
-17 -7 29 0
-17 -7 -29 0
15 -4 -2 0
5 -3 4 0
20 -14 30 0
-30 -5 31 0
-31 3 -19 0
20 32 33 0
20 32 -33 0
20 -32 33 0
20 -32 -33 0
12 2 34 0
-34 7 17 0
-10 16 35 0
-35 -8 36 0
-36 3 11 0
-19 2 37 0
-37 -1 -8 0
9 -6 38 0
-38 2 -19 0
-19 12 39 0
-39 4 10 0
-6 12 40 0
-6 12 -40 0
13 -18 41 0
13 -18 -41 0
-5 1 42 0
-42 -13 12 0
11 1 43 0
-43 18 44 0
-44 12 -17 0
7 45 46 0
7 45 -46 0
7 -45 46 0
7 -45 -46 0
-10 -9 -6 0
-16 -8 13 0
-4 -14 47 0
-47 5 48 0
-48 17 6 0
4 19 7 0
-4 -9 49 0
-49 -19 -18 0
-18 -14 50 0
-18 -14 -50 0
11 20 51 0
11 20 -51 0
9 -17 52 0
-52 -1 -8 0
-1 -7 53 0
-53 12 -13 0
19 3 54 0
-54 6 -15 0
-10 -7 55 0
-55 -18 12 0
-12 -8 56 0
-56 9 57 0
-57 -13 18 0
-3 16 58 0
-3 16 -58 0
-10 59 60 0
-10 59 -60 0
-10 -59 60 0
-10 -59 -60 0
-2 -17 61 0
-2 -17 -61 0
-7 62 63 0
-7 62 -63 0
-7 -62 63 0
-7 -62 -63 0
-4 1 64 0
-4 1 -64 0
-6 -5 65 0
-65 8 66 0
-66 2 -20 0
-17 67 68 0
-17 67 -68 0
-17 -67 68 0
-17 -67 -68 0
-14 69 70 0
-14 69 -70 0
-14 -69 70 0
-14 -69 -70 0
9 -6 71 0
-71 -20 -11 0
-16 12 72 0
-16 12 -72 0
-20 -17 73 0
-20 -17 -73 0
-15 14 74 0
-74 -19 75 0
-75 18 6 0
16 76 77 0
16 76 -77 0
16 -76 77 0
16 -76 -77 0
-2 20 11 0
17 20 16 0
9 1 78 0
-78 17 79 0
-79 -14 -11 0
16 20 80 0
-80 -2 81 0
-81 3 12 0
1 82 83 0
1 82 -83 0
1 -82 83 0
1 -82 -83 0
-15 4 84 0
-84 7 19 0
6 5 85 0
-85 -15 86 0
-86 -12 -17 0
-7 -9 87 0
-87 18 88 0
-88 -2 -11 0
8 -13 89 0
8 -13 -89 0
-9 90 91 0
-9 90 -91 0
-9 -90 91 0
-9 -90 -91 0
9 19 92 0
-92 12 -4 0
12 19 93 0
-93 11 94 0
-94 -3 -10 0
-3 -12 95 0
-95 -10 17 0
18 -8 9 0
-18 11 96 0
-96 -12 -19 0
-9 -15 97 0
-97 -4 -18 0
6 -18 98 0
6 -18 -98 0
-8 4 20 0
13 2 99 0
-99 9 -8 0
-7 -17 100 0
-100 11 101 0
-101 19 -20 0
15 18 102 0
-102 -10 103 0
-103 8 5 0
3 -17 -14 0
6 10 104 0
-104 -15 1 0
14 -19 105 0
14 -19 -105 0
-19 -7 106 0
-106 -2 18 0
5 -1 -2 0
-19 20 107 0
-107 -14 108 0
-108 17 -12 0
-10 5 109 0
-10 5 -109 0
8 -15 5 0
3 15 110 0
3 15 -110 0
-18 -9 111 0
-18 -9 -111 0
